44806
736391
522283
207741
501485
410574
851553
353309
971489
450557
144686
67670
796547
859545
587792
334202
274226
466535
942174
631024
316040
381320
820053
226597
399614
124908
139600
962385
719851
645684
521174
903138
862313
497000
31566
912647
567576
45265
70285
742106
452604
770997
574096
900586
83970
216749
763717
108964
47712
577956
578179
776862
874074
653934
353691
170049
681504
878914
479110
520144
48149
814166
902717
443353
991978
665302
859368
870838
242665
54848
359534
664064
290446
662815
499371
377938
888399
730721
790400
385205
600573
635351
79620
618861
996994
21513
960343
89759
125258
68788
224279
356445
790591
770466
893996
969488
768172
509476
358271
61121
